Water Network: 13
Results smooth approximation 1 of Hazen--Williams headloss constraint

*******************************************************************************
wdnmodel.mod

-------------------------------- Solving with gurobi --------------------------
Gurobi 12.0.1: Set parameter LogToConsole to value 1
  tech:outlev = 1
Set parameter Presolve to value 1
  pre:solve = 1
Set parameter TimeLimit to value 600
  lim:time = 600
  alg:start = 0
Set parameter Method to value 1
  alg:method = 1
Set parameter MIPGapAbs to value 1e-06
  mip:gapabs = 1e-06
Set parameter MIPGap to value 1e-09
  mip:gap = 1e-09
Set parameter BarConvTol to value 1e-09
  bar:convtol = 1e-09
  sol:chk:feastol = 1e-05
  sol:chk:feastolrel = 1e-09
Set parameter NumericFocus to value 1
  alg:numericfocus = 1
  tech:optionfile = gurobiOpt.prm

AMPL MP initial flat model has 4706 variables (0 integer, 0 binary);
Objectives: 1 linear; 
Constraints:  585 linear; 951 quadratic;
Algebraic expressions:  317 powconstexp;

AMPL MP final model has 5974 variables (0 integer, 0 binary);
Objectives: 1 linear; 
Constraints:  902 linear; 951 quadratic;
Algebraic expressions:  317 powconstexp;


Set parameter InfUnbdInfo to value 1
Gurobi Optimizer version 12.0.1 build v12.0.1rc0 (linux64 - "Debian GNU/Linux 12 (bookworm)")

CPU model: INTEL(R) XEON(R) GOLD 6530, instruction set [SSE2|AVX|AVX2|AVX512]
Thread count: 32 physical cores, 64 logical processors, using up to 32 threads

Non-default parameters:
TimeLimit  600
MIPGap  1e-09
MIPGapAbs  1e-06
Method  1
BarConvTol  1e-09
InfUnbdInfo  1
NumericFocus  1
Presolve  1

Optimize a model with 902 rows, 5974 columns and 5698 nonzeros
Model fingerprint: 0x5bf205d0
Model has 317 general nonlinear constraints (16484 nonlinear terms)
Variable types: 5974 continuous, 0 integer (0 binary)
Coefficient statistics:
  Matrix range     [1e+00, 1e+00]
  Objective range  [3e+01, 4e+02]
  Bounds range     [4e-12, 3e+04]
  RHS range        [1e-05, 1e+03]
Presolve model has 317 nlconstr
Added 9193 variables to disaggregate expressions.
Presolve removed 4 rows and 955 columns
Presolve time: 2.22s
Presolved: 25941 rows, 14530 columns, 60132 nonzeros
Presolved model has 4755 bilinear constraint(s)
Presolved model has 317 nonlinear constraint(s)

Solving non-convex MINLP

Variable types: 14530 continuous, 0 integer (0 binary)
  NLP heuristic elapsed time = 5.13s

Root simplex log...

Iteration    Objective       Primal Inf.    Dual Inf.      Time
       0    1.9890296e+06   4.018650e+05   0.000000e+00     13s
    7846    1.9890298e+06   2.839722e+03   0.000000e+00     15s
    8189    1.9890296e+06   0.000000e+00   0.000000e+00     16s

Root relaxation: objective 1.989030e+06, 8189 iterations, 2.66 seconds (0.69 work units)

    Nodes    |    Current Node    |     Objective Bounds      |     Work
 Expl Unexpl |  Obj  Depth IntInf | Incumbent    BestBd   Gap | It/Node Time

     0     0 1989029.61    0  919          - 1989029.61      -     -   15s
     0     0 1989029.61    0  909          - 1989029.61      -     -   18s
     0     0 1989029.61    0  909          - 1989029.61      -     -   18s
     0     0 1989029.61    0  904          - 1989029.61      -     -   19s
     0     0 1989029.61    0  904          - 1989029.61      -     -   19s
     0     0 1989029.61    0  899          - 1989029.61      -     -   20s
     0     0 1989029.61    0  900          - 1989029.61      -     -   20s
     0     0 1989029.61    0  895          - 1989029.61      -     -   20s
     0     0 1989029.61    0  894          - 1989029.61      -     -   20s
